Using license file /home/benedond/gurobi.lic
Using gurobi.env file
Set parameter Threads to value 1
Academic license - for non-commercial use only
Changed value of parameter TimeLimit to 300.0
   Prev: inf  Min: 0.0  Max: inf  Default: inf
Gurobi Optimizer version 9.0.1 build v9.0.1rc0 (linux64)
Optimize a model with 12375 rows, 6160 columns and 48618 nonzeros
Model fingerprint: 0x69cade96
Variable types: 55 continuous, 6105 integer (6050 binary)
Coefficient statistics:
  Matrix range     [2e-01, 9e+03]
  Objective range  [4e-04, 1e-01]
  Bounds range     [1e+00, 1e+00]
  RHS range        [1e+00, 9e+03]

---------------------------------------------------------------------------
Multi-objectives: starting optimization with 1 objectives ... 
---------------------------------------------------------------------------
---------------------------------------------------------------------------

Multi-objectives: optimize objective 1 (min avg power cons) ...
---------------------------------------------------------------------------

Optimize a model with 12375 rows, 6160 columns and 48618 nonzeros
Variable types: 55 continuous, 6105 integer (6050 binary)
Coefficient statistics:
  Matrix range     [2e-01, 9e+03]
  Objective range  [4e-04, 1e-01]
  Bounds range     [1e+00, 1e+00]
  RHS range        [1e+00, 9e+03]
Presolve removed 2822 rows and 1411 columns
Presolve time: 0.71s
Presolved: 9553 rows, 4749 columns, 37330 nonzeros
Variable types: 55 continuous, 4694 integer (4639 binary)

Root relaxation: objective 1.552779e+00, 1259 iterations, 0.11 seconds

    Nodes    |    Current Node    |     Objective Bounds      |     Work
 Expl Unexpl |  Obj  Depth IntInf | Incumbent    BestBd   Gap | It/Node Time

     0     0    1.55278    0  142          -    1.55278      -     -    6s
     0     0    1.55278    0  138          -    1.55278      -     -    7s
     0     0    1.55278    0  136          -    1.55278      -     -    9s
     0     0    1.55278    0  153          -    1.55278      -     -    9s
     0     0    1.55278    0  145          -    1.55278      -     -    9s
     0     0    1.56586    0  219          -    1.56586      -     -   10s
     0     0    1.56586    0  419          -    1.56586      -     -   11s
     0     0    1.69621    0  288          -    1.69621      -     -   11s
H    0     0                       3.9531873    1.69621  57.1%     -   11s
H    0     0                       3.9419192    1.69621  57.0%     -   11s
H    0     0                       3.8741745    1.69621  56.2%     -   12s
     0     0    1.69621    0  277    3.87417    1.69621  56.2%     -   12s
     0     0    1.74357    0  198    3.87417    1.74357  55.0%     -   12s
H    0     0                       3.6617447    1.74357  52.4%     -   13s
     0     0    1.74732    0  180    3.66174    1.74732  52.3%     -   13s
     0     0    1.76566    0  208    3.66174    1.76566  51.8%     -   13s
H    0     0                       3.4916596    1.76566  49.4%     -   13s
     0     0    1.76627    0  206    3.49166    1.76627  49.4%     -   13s
     0     0    1.77451    0  170    3.49166    1.77451  49.2%     -   14s
     0     0    1.77793    0  217    3.49166    1.77793  49.1%     -   14s
     0     0    1.78419    0  322    3.49166    1.78419  48.9%     -   14s
     0     0    1.78504    0  236    3.49166    1.78504  48.9%     -   14s
     0     0    1.78985    0  252    3.49166    1.78985  48.7%     -   15s
H    0     0                       3.3707915    1.78985  46.9%     -   16s
     0     0    1.79153    0  290    3.37079    1.79153  46.9%     -   16s
     0     0    1.79867    0  297    3.37079    1.79867  46.6%     -   16s
     0     0    1.79958    0  288    3.37079    1.79958  46.6%     -   16s
     0     0    1.80686    0  284    3.37079    1.80686  46.4%     -   16s
     0     0    1.80865    0  325    3.37079    1.80865  46.3%     -   17s
     0     0    1.81440    0  367    3.37079    1.81440  46.2%     -   17s
     0     0    1.81712    0  361    3.37079    1.81712  46.1%     -   17s
     0     0    1.82497    0  353    3.37079    1.82497  45.9%     -   17s
     0     0    1.82727    0  384    3.37079    1.82727  45.8%     -   18s
     0     0    1.83528    0  364    3.37079    1.83528  45.6%     -   18s
     0     0    1.83660    0  336    3.37079    1.83660  45.5%     -   18s
     0     0    1.84375    0  410    3.37079    1.84375  45.3%     -   18s
     0     0    1.84469    0  410    3.37079    1.84469  45.3%     -   19s
     0     0    1.85101    0  400    3.37079    1.85101  45.1%     -   19s
     0     0    1.85188    0  406    3.37079    1.85188  45.1%     -   19s
     0     0    1.85247    0  417    3.37079    1.85247  45.0%     -   19s
     0     0    1.85262    0  358    3.37079    1.85262  45.0%     -   19s
     0     0    1.85267    0  416    3.37079    1.85267  45.0%     -   19s
     0     0    1.85578    0  428    3.37079    1.85578  44.9%     -   20s
     0     0    1.85675    0  402    3.37079    1.85675  44.9%     -   20s
     0     0    1.85716    0  421    3.37079    1.85716  44.9%     -   20s
     0     0    1.85733    0  435    3.37079    1.85733  44.9%     -   20s
     0     0    1.85735    0  433    3.37079    1.85735  44.9%     -   20s
     0     0    1.86038    0  378    3.37079    1.86038  44.8%     -   21s
     0     0    1.86150    0  388    3.37079    1.86150  44.8%     -   21s
     0     0    1.86197    0  432    3.37079    1.86197  44.8%     -   21s
     0     0    1.86232    0  384    3.37079    1.86232  44.8%     -   21s
     0     0    1.86242    0  387    3.37079    1.86242  44.7%     -   21s
     0     0    1.86484    0  476    3.37079    1.86484  44.7%     -   22s
     0     0    1.86547    0  452    3.37079    1.86547  44.7%     -   22s
     0     0    1.86559    0  459    3.37079    1.86559  44.7%     -   22s
     0     0    1.86580    0  428    3.37079    1.86580  44.6%     -   22s
     0     0    1.86588    0  459    3.37079    1.86588  44.6%     -   22s
     0     0    1.86724    0  417    3.37079    1.86724  44.6%     -   23s
     0     0    1.86776    0  394    3.37079    1.86776  44.6%     -   23s
     0     0    1.86797    0  437    3.37079    1.86797  44.6%     -   23s
     0     0    1.86800    0  404    3.37079    1.86800  44.6%     -   23s
     0     0    1.86951    0  419    3.37079    1.86951  44.5%     -   24s
     0     0    1.86987    0  437    3.37079    1.86987  44.5%     -   24s
     0     0    1.87009    0  433    3.37079    1.87009  44.5%     -   24s
     0     0    1.87018    0  416    3.37079    1.87018  44.5%     -   24s
     0     0    1.87073    0  435    3.37079    1.87073  44.5%     -   24s
     0     0    1.87101    0  411    3.37079    1.87101  44.5%     -   25s
     0     0    1.87116    0  433    3.37079    1.87116  44.5%     -   25s
     0     0    1.87119    0  410    3.37079    1.87119  44.5%     -   25s
     0     0    1.87163    0  430    3.37079    1.87163  44.5%     -   25s
     0     0    1.87163    0  427    3.37079    1.87163  44.5%     -   25s
     0     2    1.87163    0  427    3.37079    1.87163  44.5%     -   26s
    24    26    1.90042   19  329    3.37079    1.87468  44.4%   733   30s
H   27    27                       3.2652468    1.87468  42.6%   792   32s
    41    43    2.46085   31  411    3.26525    1.87468  42.6%   829   35s
H   54    54                       3.2591490    1.87468  42.5%   689   36s
H  106   100                       3.1970043    1.87468  41.4%   502   41s
H  108   101                       3.1949490    1.87468  41.3%   501   42s
H  135   124                       3.1908213    1.87468  41.2%   415   43s
   189   177    2.97342  160   88    3.19082    1.87468  41.2%   298   46s
H  246   217                       3.1864979    1.87468  41.2%   230   47s
H  276   231                       3.1842298    1.87468  41.1%   207   47s
   288   245    2.43979   12  342    3.18423    1.87780  41.0%   237   50s
H  330   285                       3.1779702    1.87780  40.9%   266   54s
   331   288    2.15554   50  298    3.17797    1.87780  40.9%   268   55s
H  357   312                       3.1688596    1.87780  40.7%   289   58s
H  384   337                       3.1673830    1.87780  40.7%   270   58s
   450   395    2.06689    6  321    3.16738    1.87807  40.7%   239   60s
H  465   408                       3.1642809    1.87807  40.6%   251   63s
   481   426    2.09719   33  294    3.16428    1.87807  40.6%   259   65s
H  510   448                       3.1567532    1.87807  40.5%   273   74s
   511   449    3.01063  211  138    3.15675    1.87807  40.5%   273   77s
   517   453    3.00313  197  395    3.15675    1.87807  40.5%   270   80s
H  520   432                       3.1413958    1.87807  40.2%   268   82s
   524   435    2.48374   75  455    3.14140    1.88075  40.1%   266   85s
H  526   414                       3.1205830    1.88181  39.7%   265   88s
   528   417    1.88181   15  417    3.12058    1.88181  39.7%   292   90s
   531   419    1.92306   16  314    3.12058    1.88372  39.6%   295   95s
   536   423    1.88530   19  347    3.12058    1.88488  39.6%   303  100s
   547   426    2.13492   24  276    3.12058    1.89218  39.4%   322  105s
H  554   408                       3.0853532    1.89693  38.5%   332  109s
   557   412    1.99923   29  288    3.08535    1.89698  38.5%   338  110s
   569   418    2.17402   35  238    3.08535    1.90687  38.2%   354  115s
H  581   404                       3.0455277    1.90964  37.3%   364  119s
   585   408    2.01588   43  229    3.04553    1.91209  37.2%   371  120s
H  591   391                       3.0150639    1.91209  36.6%   373  123s
   599   399    2.06520   50  238    3.01506    1.91209  36.6%   382  125s
H  608   385                       3.0116170    1.91209  36.5%   391  129s
   610   388    1.94507   56  265    3.01162    1.91209  36.5%   395  130s
   628   398    1.99182   65  312    3.01162    1.91209  36.5%   408  135s
   638   405    2.14491   70  194    3.01162    1.91209  36.5%   418  140s
   688   422    2.23056   50  168    3.01162    1.91213  36.5%   409  145s
H  690   404                       3.0065830    1.91213  36.4%   408  146s
   771   458    2.28983   92  172    3.00658    1.91213  36.4%   372  151s
H  825   471                       2.9988936    1.91213  36.2%   352  154s
   847   488    2.62783  129  110    2.99889    1.91213  36.2%   345  155s
H  906   508                       2.9955107    1.91213  36.2%   327  158s
   960   542    2.60586  186  101    2.99551    1.91213  36.2%   311  160s
  1060   586    2.01950   43  287    2.99551    1.92515  35.7%   295  165s
  1079   599    2.04776   52  316    2.99551    1.92515  35.7%   309  170s
H 1095   592                       2.9933064    1.92515  35.7%   317  175s
  1121   612    2.10285   73  263    2.99331    1.92515  35.7%   334  180s
H 1122   596                       2.9916596    1.92515  35.6%   334  180s
  1141   611    2.18277   83  223    2.99166    1.92515  35.6%   343  185s
H 1149   601                       2.9903490    1.92515  35.6%   343  186s
H 1176   606                       2.9886639    1.92515  35.6%   345  189s
  1189   617    2.14535  107  213    2.98866    1.92515  35.6%   344  190s
H 1257   667                       2.9875362    1.92515  35.6%   342  195s
  1338   747    2.41046  182  134    2.98754    1.92515  35.6%   338  200s
H 1365   770                       2.9851362    1.92515  35.5%   335  201s
H 1419   814                       2.9834553    1.92515  35.5%   326  204s
  1446   815    2.80072  228   75    2.98346    1.92515  35.5%   321  205s
  1538   849    2.09443   34  289    2.98346    1.93496  35.1%   308  210s
  1588   899    2.15274   71  237    2.98346    1.93496  35.1%   309  215s
  1671   982    2.37504  138  189    2.98346    1.93496  35.1%   303  220s
H 1691   995                       2.9794213    1.93496  35.1%   301  221s
  1853  1153    2.74302  247   82    2.97942    1.93496  35.1%   280  225s
  1896  1173    2.03756   30  340    2.97942    1.93504  35.1%   283  230s
H 1934  1209                       2.9794213    1.93504  35.1%   288  235s
H 1961  1236                       2.9794212    1.93504  35.1%   294  239s
  1962  1239    2.26989   79  246    2.97942    1.93504  35.1%   295  240s
  1975  1252    2.31785   84  243    2.97942    1.93504  35.1%   297  248s
  1986  1263    2.33093   93  239    2.97942    1.93504  35.1%   297  256s
  2088  1365    2.55140  153  191    2.97942    1.93504  35.1%   288  260s
  2274  1539 infeasible  291         2.97942    1.93504  35.1%   273  265s
  2357  1594    2.23968   63  193    2.97942    1.93514  35.0%   273  270s
  2601  1798    2.63126   35  245    2.97942    1.94315  34.8%   254  275s
  2694  1857    2.03074   21  302    2.97942    1.96062  34.2%   250  280s
  2754  1917    2.40944   81  213    2.97942    1.96062  34.2%   252  285s
  2918  2008    2.11848   17  258    2.97942    1.96960  33.9%   243  290s
  2958  2048    2.43243   57  167    2.97942    1.96960  33.9%   241  298s

Cutting planes:
  Gomory: 6
  Cover: 3
  Implied bound: 66
  Projected implied bound: 32
  MIR: 156
  Flow cover: 198
  GUB cover: 2
  Zero half: 3
  Mod-K: 3
  RLT: 3
  Relax-and-lift: 439

Explored 3062 nodes (777549 simplex iterations) in 300.00 seconds
Thread count was 1 (of 4 available processors)

Solution count 10: 2.97942 2.97942 2.98346 ... 2.99551

Time limit reached
Best objective 2.979420719897e+00, best bound 1.969596364086e+00, gap 33.8933%

---------------------------------------------------------------------------
Multi-objectives: stopped in 300.01 seconds, solution count 10
Time Limit reached

